NAME: tsp5_23
COMMENT: 5-tsp problem (Padberg/Rinaldi)
TYPE: TSP
DIMENSION: 5
EDGE_WEIGHT_TYPE : EUC_2D
NODE_COORD_SECTION
1.00 25.07 9.47
2.00 5.36 6.78
3.00 33.93 2.41
4.00 38.39 6.92
5.00 38.71 25.36
